p cnf 430 1488
-191 172 0
-191 -161 0
-191 43 0
-191 -159 0
-191 -98 0
191 -172 161 -43 159 98 0
-192 -43 0
-192 -2 0
-192 59 0
-192 18 0
-192 104 0
192 43 2 -59 -18 -104 0
-193 9 0
-193 176 0
-193 -151 0
-193 152 0
-193 -51 0
193 -9 -176 151 -152 51 0
-194 134 0
-194 39 0
-194 189 0
-194 30 0
-194 44 0
194 -134 -39 -189 -30 -44 0
-195 -52 0
-195 -131 0
-195 -61 0
-195 12 0
-195 -22 0
195 52 131 61 -12 22 0
191 192 193 194 195 0
-196 -172 0
-196 -176 0
-196 75 0
-196 -16 0
-196 -143 0
196 172 176 -75 16 143 0
-197 36 0
-197 173 0
-197 -115 0
-197 -175 0
-197 -41 0
197 -36 -173 115 175 41 0
-198 -166 0
-198 132 0
-198 85 0
-198 45 0
-198 -50 0
198 166 -132 -85 -45 50 0
-199 177 0
-199 86 0
-199 -64 0
-199 -105 0
-199 -33 0
199 -177 -86 64 105 33 0
-200 146 0
-200 168 0
-200 153 0
-200 181 0
-200 -27 0
200 -146 -168 -153 -181 27 0
196 197 198 199 200 0
-201 -175 0
-201 -114 0
-201 -134 0
-201 -109 0
-201 -36 0
201 175 114 134 109 36 0
-202 170 0
-202 -185 0
-202 -101 0
-202 -91 0
-202 -83 0
202 -170 185 101 91 83 0
-203 -166 0
-203 -159 0
-203 34 0
-203 -85 0
-203 -33 0
203 166 159 -34 85 33 0
-204 55 0
-204 -161 0
-204 -71 0
-204 -61 0
-204 187 0
204 -55 161 71 61 -187 0
-205 23 0
-205 -149 0
-205 5 0
-205 -54 0
-205 -116 0
205 -23 149 -5 54 116 0
201 202 203 204 205 0
-206 -110 0
-206 41 0
-206 -62 0
-206 28 0
-206 59 0
206 110 -41 62 -28 -59 0
-207 50 0
-207 101 0
-207 -5 0
-207 173 0
-207 148 0
207 -50 -101 5 -173 -148 0
-208 -158 0
-208 -133 0
-208 -2 0
-208 190 0
-208 -147 0
208 158 133 2 -190 147 0
-209 181 0
-209 -116 0
-209 95 0
-209 166 0
-209 60 0
209 -181 116 -95 -166 -60 0
-210 114 0
-210 -178 0
-210 -152 0
-210 92 0
-210 75 0
210 -114 178 152 -92 -75 0
206 207 208 209 210 0
-211 113 0
-211 -60 0
-211 -73 0
-211 -39 0
-211 -92 0
211 -113 60 73 39 92 0
-212 184 0
-212 112 0
-212 -164 0
-212 14 0
-212 94 0
212 -184 -112 164 -14 -94 0
-213 -12 0
-213 -59 0
-213 -45 0
-213 -72 0
-213 154 0
213 12 59 45 72 -154 0
-214 132 0
-214 -161 0
-214 129 0
-214 -56 0
-214 57 0
214 -132 161 -129 56 -57 0
-215 83 0
-215 -17 0
-215 -54 0
-215 37 0
-215 -46 0
215 -83 17 54 -37 46 0
211 212 213 214 215 0
-216 136 0
-216 -147 0
-216 146 0
-216 189 0
-216 31 0
216 -136 147 -146 -189 -31 0
-217 45 0
-217 8 0
-217 -52 0
-217 152 0
-217 -155 0
217 -45 -8 52 -152 155 0
-218 133 0
-218 -34 0
-218 178 0
-218 -43 0
-218 82 0
218 -133 34 -178 43 -82 0
-219 -61 0
-219 170 0
-219 176 0
-219 -157 0
-219 -125 0
219 61 -170 -176 157 125 0
-220 136 0
-220 95 0
-220 144 0
-220 27 0
-220 -124 0
220 -136 -95 -144 -27 124 0
216 217 218 219 220 0
-221 -74 0
-221 -95 0
-221 -124 0
-221 110 0
-221 -64 0
221 74 95 124 -110 64 0
-222 155 0
-222 -77 0
-222 -90 0
-222 187 0
-222 174 0
222 -155 77 90 -187 -174 0
-223 -77 0
-223 133 0
-223 96 0
-223 69 0
-223 88 0
223 77 -133 -96 -69 -88 0
-224 -170 0
-224 146 0
-224 -74 0
-224 -137 0
-224 -165 0
224 170 -146 74 137 165 0
-225 -71 0
-225 55 0
-225 60 0
-225 -102 0
-225 -78 0
225 71 -55 -60 102 78 0
221 222 223 224 225 0
-226 -86 0
-226 -130 0
-226 -87 0
-226 55 0
-226 -173 0
226 86 130 87 -55 173 0
-227 -178 0
-227 -42 0
-227 140 0
-227 55 0
-227 188 0
227 178 42 -140 -55 -188 0
-228 -113 0
-228 23 0
-228 25 0
-228 -129 0
-228 -131 0
228 113 -23 -25 129 131 0
-229 30 0
-229 183 0
-229 126 0
-229 88 0
-229 76 0
229 -30 -183 -126 -88 -76 0
-230 91 0
-230 -50 0
-230 -159 0
-230 174 0
-230 -126 0
230 -91 50 159 -174 126 0
226 227 228 229 230 0
-231 143 0
-231 186 0
-231 -24 0
-231 156 0
-231 97 0
231 -143 -186 24 -156 -97 0
-232 -79 0
-232 96 0
-232 -176 0
-232 146 0
-232 180 0
232 79 -96 176 -146 -180 0
-233 69 0
-233 25 0
-233 117 0
-233 68 0
-233 95 0
233 -69 -25 -117 -68 -95 0
-234 45 0
-234 155 0
-234 101 0
-234 154 0
-234 175 0
234 -45 -155 -101 -154 -175 0
-235 152 0
-235 67 0
-235 176 0
-235 -37 0
-235 -138 0
235 -152 -67 -176 37 138 0
231 232 233 234 235 0
-236 -171 0
-236 18 0
-236 9 0
-236 97 0
-236 25 0
236 171 -18 -9 -97 -25 0
-237 -93 0
-237 -25 0
-237 -189 0
-237 96 0
-237 -113 0
237 93 25 189 -96 113 0
-238 -136 0
-238 79 0
-238 -165 0
-238 -127 0
-238 -71 0
238 136 -79 165 127 71 0
-239 63 0
-239 -157 0
-239 104 0
-239 65 0
-239 -162 0
239 -63 157 -104 -65 162 0
-240 -96 0
-240 81 0
-240 100 0
-240 83 0
-240 139 0
240 96 -81 -100 -83 -139 0
236 237 238 239 240 0
-241 -113 0
-241 135 0
-241 -36 0
-241 182 0
-241 -80 0
241 113 -135 36 -182 80 0
-242 36 0
-242 -16 0
-242 121 0
-242 72 0
-242 -94 0
242 -36 16 -121 -72 94 0
-243 122 0
-243 4 0
-243 168 0
-243 90 0
-243 -172 0
243 -122 -4 -168 -90 172 0
-244 173 0
-244 -103 0
-244 43 0
-244 62 0
-244 56 0
244 -173 103 -43 -62 -56 0
-245 128 0
-245 124 0
-245 -20 0
-245 -147 0
-245 -110 0
245 -128 -124 20 147 110 0
241 242 243 244 245 0
-246 -130 0
-246 -75 0
-246 -8 0
-246 -109 0
-246 -163 0
246 130 75 8 109 163 0
-247 -82 0
-247 109 0
-247 122 0
-247 -50 0
-247 83 0
247 82 -109 -122 50 -83 0
-248 -54 0
-248 -151 0
-248 150 0
-248 186 0
-248 104 0
248 54 151 -150 -186 -104 0
-249 43 0
-249 57 0
-249 35 0
-249 -155 0
-249 -184 0
249 -43 -57 -35 155 184 0
-250 116 0
-250 39 0
-250 136 0
-250 -24 0
-250 103 0
250 -116 -39 -136 24 -103 0
246 247 248 249 250 0
-251 -172 0
-251 64 0
-251 148 0
-251 38 0
-251 139 0
251 172 -64 -148 -38 -139 0
-252 -146 0
-252 176 0
-252 -94 0
-252 -24 0
-252 -4 0
252 146 -176 94 24 4 0
-253 48 0
-253 69 0
-253 -156 0
-253 167 0
-253 -94 0
253 -48 -69 156 -167 94 0
-254 -12 0
-254 153 0
-254 62 0
-254 148 0
-254 127 0
254 12 -153 -62 -148 -127 0
-255 -106 0
-255 79 0
-255 48 0
-255 -109 0
-255 -155 0
255 106 -79 -48 109 155 0
251 252 253 254 255 0
-256 -18 0
-256 -42 0
-256 59 0
-256 23 0
-256 -166 0
256 18 42 -59 -23 166 0
-257 119 0
-257 140 0
-257 -38 0
-257 -90 0
-257 37 0
257 -119 -140 38 90 -37 0
-258 -62 0
-258 32 0
-258 -135 0
-258 -183 0
-258 -73 0
258 62 -32 135 183 73 0
-259 -61 0
-259 99 0
-259 -37 0
-259 -111 0
-259 10 0
259 61 -99 37 111 -10 0
-260 20 0
-260 -187 0
-260 174 0
-260 86 0
-260 54 0
260 -20 187 -174 -86 -54 0
256 257 258 259 260 0
-261 116 0
-261 -132 0
-261 22 0
-261 128 0
-261 36 0
261 -116 132 -22 -128 -36 0
-262 -175 0
-262 -65 0
-262 182 0
-262 26 0
-262 178 0
262 175 65 -182 -26 -178 0
-263 25 0
-263 166 0
-263 51 0
-263 -132 0
-263 -95 0
263 -25 -166 -51 132 95 0
-264 -93 0
-264 53 0
-264 -52 0
-264 -23 0
-264 -127 0
264 93 -53 52 23 127 0
-265 -80 0
-265 -50 0
-265 -89 0
-265 150 0
-265 -33 0
265 80 50 89 -150 33 0
261 262 263 264 265 0
-266 38 0
-266 151 0
-266 75 0
-266 -22 0
-266 -118 0
266 -38 -151 -75 22 118 0
-267 115 0
-267 3 0
-267 53 0
-267 -106 0
-267 139 0
267 -115 -3 -53 106 -139 0
-268 150 0
-268 -67 0
-268 -77 0
-268 -175 0
-268 -120 0
268 -150 67 77 175 120 0
-269 -50 0
-269 36 0
-269 -68 0
-269 -54 0
-269 -123 0
269 50 -36 68 54 123 0
-270 79 0
-270 10 0
-270 75 0
-270 -105 0
-270 17 0
270 -79 -10 -75 105 -17 0
266 267 268 269 270 0
-271 150 0
-271 48 0
-271 -124 0
-271 184 0
-271 97 0
271 -150 -48 124 -184 -97 0
-272 89 0
-272 -184 0
-272 -8 0
-272 -20 0
-272 121 0
272 -89 184 8 20 -121 0
-273 151 0
-273 67 0
-273 152 0
-273 -70 0
-273 -162 0
273 -151 -67 -152 70 162 0
-274 89 0
-274 96 0
-274 72 0
-274 -30 0
-274 -6 0
274 -89 -96 -72 30 6 0
-275 -127 0
-275 -17 0
-275 -122 0
-275 120 0
-275 -118 0
275 127 17 122 -120 118 0
271 272 273 274 275 0
-276 39 0
-276 54 0
-276 -22 0
-276 32 0
-276 -139 0
276 -39 -54 22 -32 139 0
-277 -27 0
-277 -164 0
-277 -152 0
-277 133 0
-277 -143 0
277 27 164 152 -133 143 0
-278 103 0
-278 83 0
-278 -189 0
-278 -63 0
-278 -38 0
278 -103 -83 189 63 38 0
-279 102 0
-279 41 0
-279 -182 0
-279 -126 0
-279 77 0
279 -102 -41 182 126 -77 0
-280 -83 0
-280 -178 0
-280 180 0
-280 -11 0
-280 -70 0
280 83 178 -180 11 70 0
276 277 278 279 280 0
-281 -165 0
-281 107 0
-281 141 0
-281 -184 0
-281 22 0
281 165 -107 -141 184 -22 0
-282 8 0
-282 -78 0
-282 10 0
-282 50 0
-282 151 0
282 -8 78 -10 -50 -151 0
-283 139 0
-283 -24 0
-283 8 0
-283 -77 0
-283 -158 0
283 -139 24 -8 77 158 0
-284 -155 0
-284 112 0
-284 96 0
-284 -26 0
-284 184 0
284 155 -112 -96 26 -184 0
-285 25 0
-285 151 0
-285 99 0
-285 -153 0
-285 107 0
285 -25 -151 -99 153 -107 0
281 282 283 284 285 0
-286 97 0
-286 184 0
-286 -17 0
-286 159 0
-286 -66 0
286 -97 -184 17 -159 66 0
-287 85 0
-287 -173 0
-287 83 0
-287 -38 0
-287 128 0
287 -85 173 -83 38 -128 0
-288 162 0
-288 7 0
-288 159 0
-288 157 0
-288 -124 0
288 -162 -7 -159 -157 124 0
-289 118 0
-289 -32 0
-289 186 0
-289 173 0
-289 56 0
289 -118 32 -186 -173 -56 0
-290 141 0
-290 170 0
-290 3 0
-290 -136 0
-290 -188 0
290 -141 -170 -3 136 188 0
286 287 288 289 290 0
-291 -63 0
-291 -96 0
-291 -18 0
-291 52 0
-291 138 0
291 63 96 18 -52 -138 0
-292 88 0
-292 -170 0
-292 99 0
-292 123 0
-292 89 0
292 -88 170 -99 -123 -89 0
-293 -34 0
-293 -158 0
-293 -75 0
-293 -27 0
-293 82 0
293 34 158 75 27 -82 0
-294 -124 0
-294 26 0
-294 181 0
-294 61 0
-294 28 0
294 124 -26 -181 -61 -28 0
-295 43 0
-295 169 0
-295 117 0
-295 74 0
-295 60 0
295 -43 -169 -117 -74 -60 0
291 292 293 294 295 0
-296 -9 0
-296 158 0
-296 110 0
-296 149 0
-296 -155 0
296 9 -158 -110 -149 155 0
-297 157 0
-297 -102 0
-297 5 0
-297 122 0
-297 -148 0
297 -157 102 -5 -122 148 0
-298 -96 0
-298 169 0
-298 25 0
-298 -19 0
-298 -100 0
298 96 -169 -25 19 100 0
-299 -16 0
-299 63 0
-299 -48 0
-299 64 0
-299 68 0
299 16 -63 48 -64 -68 0
-300 165 0
-300 -1 0
-300 42 0
-300 -103 0
-300 -135 0
300 -165 1 -42 103 135 0
296 297 298 299 300 0
-301 17 0
-301 -110 0
-301 -90 0
-301 -53 0
-301 -158 0
301 -17 110 90 53 158 0
-302 -112 0
-302 -33 0
-302 21 0
-302 166 0
-302 -149 0
302 112 33 -21 -166 149 0
-303 -107 0
-303 98 0
-303 -30 0
-303 51 0
-303 -56 0
303 107 -98 30 -51 56 0
-304 5 0
-304 89 0
-304 -154 0
-304 -35 0
-304 -159 0
304 -5 -89 154 35 159 0
-305 -114 0
-305 -19 0
-305 -10 0
-305 -181 0
-305 -70 0
305 114 19 10 181 70 0
301 302 303 304 305 0
-306 -101 0
-306 -80 0
-306 -54 0
-306 172 0
-306 73 0
306 101 80 54 -172 -73 0
-307 12 0
-307 -186 0
-307 109 0
-307 -156 0
-307 14 0
307 -12 186 -109 156 -14 0
-308 -174 0
-308 -115 0
-308 -100 0
-308 12 0
-308 -124 0
308 174 115 100 -12 124 0
-309 -171 0
-309 -32 0
-309 -189 0
-309 -101 0
-309 126 0
309 171 32 189 101 -126 0
-310 -125 0
-310 132 0
-310 -59 0
-310 94 0
-310 60 0
310 125 -132 59 -94 -60 0
306 307 308 309 310 0
-311 -144 0
-311 -28 0
-311 -190 0
-311 124 0
-311 -31 0
311 144 28 190 -124 31 0
-312 -108 0
-312 137 0
-312 165 0
-312 -147 0
-312 -120 0
312 108 -137 -165 147 120 0
-313 -43 0
-313 45 0
-313 67 0
-313 -166 0
-313 -44 0
313 43 -45 -67 166 44 0
-314 -106 0
-314 92 0
-314 180 0
-314 115 0
-314 -22 0
314 106 -92 -180 -115 22 0
-315 -22 0
-315 168 0
-315 -188 0
-315 -180 0
-315 143 0
315 22 -168 188 180 -143 0
311 312 313 314 315 0
-316 59 0
-316 -23 0
-316 113 0
-316 160 0
-316 -25 0
316 -59 23 -113 -160 25 0
-317 -87 0
-317 73 0
-317 -48 0
-317 -85 0
-317 -61 0
317 87 -73 48 85 61 0
-318 19 0
-318 -4 0
-318 106 0
-318 -57 0
-318 12 0
318 -19 4 -106 57 -12 0
-319 -51 0
-319 104 0
-319 34 0
-319 -147 0
-319 183 0
319 51 -104 -34 147 -183 0
-320 65 0
-320 -187 0
-320 190 0
-320 2 0
-320 -124 0
320 -65 187 -190 -2 124 0
316 317 318 319 320 0
-321 -52 0
-321 -163 0
-321 -143 0
-321 -19 0
-321 42 0
321 52 163 143 19 -42 0
-322 -23 0
-322 -67 0
-322 75 0
-322 -76 0
-322 -3 0
322 23 67 -75 76 3 0
-323 20 0
-323 186 0
-323 -150 0
-323 -160 0
-323 174 0
323 -20 -186 150 160 -174 0
-324 -160 0
-324 -54 0
-324 -90 0
-324 129 0
-324 -174 0
324 160 54 90 -129 174 0
-325 111 0
-325 176 0
-325 -50 0
-325 -99 0
-325 188 0
325 -111 -176 50 99 -188 0
321 322 323 324 325 0
-326 73 0
-326 142 0
-326 -36 0
-326 -27 0
-326 -141 0
326 -73 -142 36 27 141 0
-327 -95 0
-327 -139 0
-327 65 0
-327 13 0
-327 63 0
327 95 139 -65 -13 -63 0
-328 -103 0
-328 42 0
-328 -140 0
-328 -128 0
-328 57 0
328 103 -42 140 128 -57 0
-329 -92 0
-329 -147 0
-329 -41 0
-329 -64 0
-329 65 0
329 92 147 41 64 -65 0
-330 -53 0
-330 142 0
-330 -72 0
-330 -10 0
-330 -167 0
330 53 -142 72 10 167 0
326 327 328 329 330 0
-331 -111 0
-331 165 0
-331 -4 0
-331 60 0
-331 -76 0
331 111 -165 4 -60 76 0
-332 178 0
-332 102 0
-332 -87 0
-332 -69 0
-332 -71 0
332 -178 -102 87 69 71 0
-333 -127 0
-333 -36 0
-333 -147 0
-333 180 0
-333 -81 0
333 127 36 147 -180 81 0
-334 -152 0
-334 -57 0
-334 44 0
-334 -72 0
-334 73 0
334 152 57 -44 72 -73 0
-335 -112 0
-335 -51 0
-335 -123 0
-335 126 0
-335 65 0
335 112 51 123 -126 -65 0
331 332 333 334 335 0
-336 9 0
-336 -119 0
-336 -75 0
-336 -55 0
-336 20 0
336 -9 119 75 55 -20 0
-337 -46 0
-337 -85 0
-337 -140 0
-337 98 0
-337 105 0
337 46 85 140 -98 -105 0
-338 171 0
-338 136 0
-338 -40 0
-338 -8 0
-338 90 0
338 -171 -136 40 8 -90 0
-339 -161 0
-339 -172 0
-339 -175 0
-339 108 0
-339 41 0
339 161 172 175 -108 -41 0
-340 55 0
-340 -130 0
-340 138 0
-340 -178 0
-340 -33 0
340 -55 130 -138 178 33 0
336 337 338 339 340 0
-341 86 0
-341 -120 0
-341 -74 0
-341 87 0
-341 -36 0
341 -86 120 74 -87 36 0
-342 -30 0
-342 139 0
-342 -151 0
-342 -177 0
-342 77 0
342 30 -139 151 177 -77 0
-343 49 0
-343 -131 0
-343 -128 0
-343 152 0
-343 -9 0
343 -49 131 128 -152 9 0
-344 34 0
-344 185 0
-344 -1 0
-344 -29 0
-344 -13 0
344 -34 -185 1 29 13 0
-345 14 0
-345 -89 0
-345 -13 0
-345 -154 0
-345 -44 0
345 -14 89 13 154 44 0
341 342 343 344 345 0
-346 -24 0
-346 -66 0
-346 -37 0
-346 -7 0
-346 159 0
346 24 66 37 7 -159 0
-347 -188 0
-347 102 0
-347 87 0
-347 155 0
-347 -12 0
347 188 -102 -87 -155 12 0
-348 89 0
-348 -56 0
-348 183 0
-348 76 0
-348 -7 0
348 -89 56 -183 -76 7 0
-349 161 0
-349 26 0
-349 -102 0
-349 -180 0
-349 181 0
349 -161 -26 102 180 -181 0
-350 -61 0
-350 49 0
-350 90 0
-350 15 0
-350 -102 0
350 61 -49 -90 -15 102 0
346 347 348 349 350 0
-351 88 0
-351 170 0
-351 183 0
-351 136 0
-351 -30 0
351 -88 -170 -183 -136 30 0
-352 -38 0
-352 -175 0
-352 35 0
-352 24 0
-352 -22 0
352 38 175 -35 -24 22 0
-353 91 0
-353 -143 0
-353 164 0
-353 157 0
-353 42 0
353 -91 143 -164 -157 -42 0
-354 -74 0
-354 69 0
-354 67 0
-354 -186 0
-354 -177 0
354 74 -69 -67 186 177 0
-355 8 0
-355 149 0
-355 146 0
-355 -99 0
-355 131 0
355 -8 -149 -146 99 -131 0
351 352 353 354 355 0
-356 147 0
-356 32 0
-356 -82 0
-356 14 0
-356 -37 0
356 -147 -32 82 -14 37 0
-357 146 0
-357 -7 0
-357 -178 0
-357 -26 0
-357 -113 0
357 -146 7 178 26 113 0
-358 -95 0
-358 -169 0
-358 -93 0
-358 181 0
-358 -85 0
358 95 169 93 -181 85 0
-359 60 0
-359 -111 0
-359 -157 0
-359 89 0
-359 -106 0
359 -60 111 157 -89 106 0
-360 171 0
-360 35 0
-360 102 0
-360 14 0
-360 -109 0
360 -171 -35 -102 -14 109 0
356 357 358 359 360 0
-361 95 0
-361 -90 0
-361 20 0
-361 -74 0
-361 -139 0
361 -95 90 -20 74 139 0
-362 -130 0
-362 56 0
-362 -161 0
-362 -43 0
-362 5 0
362 130 -56 161 43 -5 0
-363 67 0
-363 -181 0
-363 -96 0
-363 -185 0
-363 83 0
363 -67 181 96 185 -83 0
-364 -76 0
-364 20 0
-364 -190 0
-364 -52 0
-364 77 0
364 76 -20 190 52 -77 0
-365 145 0
-365 -76 0
-365 55 0
-365 44 0
-365 54 0
365 -145 76 -55 -44 -54 0
361 362 363 364 365 0
-366 128 0
-366 76 0
-366 -125 0
-366 -150 0
-366 107 0
366 -128 -76 125 150 -107 0
-367 127 0
-367 190 0
-367 62 0
-367 -66 0
-367 -155 0
367 -127 -190 -62 66 155 0
-368 133 0
-368 -168 0
-368 47 0
-368 37 0
-368 -43 0
368 -133 168 -47 -37 43 0
-369 -182 0
-369 149 0
-369 148 0
-369 170 0
-369 -21 0
369 182 -149 -148 -170 21 0
-370 -169 0
-370 10 0
-370 -187 0
-370 104 0
-370 17 0
370 169 -10 187 -104 -17 0
366 367 368 369 370 0
-371 -59 0
-371 -77 0
-371 153 0
-371 -25 0
-371 -188 0
371 59 77 -153 25 188 0
-372 -111 0
-372 -104 0
-372 -60 0
-372 88 0
-372 89 0
372 111 104 60 -88 -89 0
-373 -177 0
-373 187 0
-373 55 0
-373 7 0
-373 186 0
373 177 -187 -55 -7 -186 0
-374 -175 0
-374 83 0
-374 1 0
-374 -159 0
-374 -46 0
374 175 -83 -1 159 46 0
-375 -85 0
-375 -68 0
-375 36 0
-375 136 0
-375 86 0
375 85 68 -36 -136 -86 0
371 372 373 374 375 0
-376 -36 0
-376 -28 0
-376 -143 0
-376 -40 0
-376 11 0
376 36 28 143 40 -11 0
-377 -162 0
-377 -70 0
-377 -52 0
-377 187 0
-377 -135 0
377 162 70 52 -187 135 0
-378 185 0
-378 -75 0
-378 -131 0
-378 -60 0
-378 157 0
378 -185 75 131 60 -157 0
-379 81 0
-379 -36 0
-379 174 0
-379 -22 0
-379 27 0
379 -81 36 -174 22 -27 0
-380 -126 0
-380 21 0
-380 -56 0
-380 130 0
-380 11 0
380 126 -21 56 -130 -11 0
376 377 378 379 380 0
-381 -130 0
-381 -67 0
-381 85 0
-381 -13 0
-381 -151 0
381 130 67 -85 13 151 0
-382 -76 0
-382 91 0
-382 89 0
-382 45 0
-382 -115 0
382 76 -91 -89 -45 115 0
-383 -144 0
-383 186 0
-383 68 0
-383 -35 0
-383 122 0
383 144 -186 -68 35 -122 0
-384 186 0
-384 2 0
-384 -21 0
-384 54 0
-384 110 0
384 -186 -2 21 -54 -110 0
-385 68 0
-385 -110 0
-385 60 0
-385 -94 0
-385 -169 0
385 -68 110 -60 94 169 0
381 382 383 384 385 0
-386 29 0
-386 -157 0
-386 181 0
-386 -93 0
-386 20 0
386 -29 157 -181 93 -20 0
-387 34 0
-387 -151 0
-387 -81 0
-387 24 0
-387 94 0
387 -34 151 81 -24 -94 0
-388 171 0
-388 -15 0
-388 164 0
-388 -66 0
-388 157 0
388 -171 15 -164 66 -157 0
-389 -31 0
-389 34 0
-389 188 0
-389 -16 0
-389 -76 0
389 31 -34 -188 16 76 0
-390 157 0
-390 83 0
-390 -22 0
-390 -145 0
-390 -33 0
390 -157 -83 22 145 33 0
386 387 388 389 390 0
-391 175 0
-391 187 0
-391 159 0
-391 117 0
-391 35 0
391 -175 -187 -159 -117 -35 0
-392 169 0
-392 63 0
-392 174 0
-392 37 0
-392 -121 0
392 -169 -63 -174 -37 121 0
-393 17 0
-393 -7 0
-393 186 0
-393 -74 0
-393 -10 0
393 -17 7 -186 74 10 0
-394 173 0
-394 -65 0
-394 43 0
-394 -178 0
-394 136 0
394 -173 65 -43 178 -136 0
-395 115 0
-395 -189 0
-395 -177 0
-395 -164 0
-395 -71 0
395 -115 189 177 164 71 0
391 392 393 394 395 0
-396 188 0
-396 7 0
-396 -171 0
-396 127 0
-396 134 0
396 -188 -7 171 -127 -134 0
-397 -16 0
-397 172 0
-397 -182 0
-397 -43 0
-397 99 0
397 16 -172 182 43 -99 0
-398 135 0
-398 175 0
-398 153 0
-398 96 0
-398 64 0
398 -135 -175 -153 -96 -64 0
-399 28 0
-399 156 0
-399 175 0
-399 -20 0
-399 -33 0
399 -28 -156 -175 20 33 0
-400 -8 0
-400 169 0
-400 154 0
-400 -130 0
-400 162 0
400 8 -169 -154 130 -162 0
396 397 398 399 400 0
-401 127 0
-401 -10 0
-401 -66 0
-401 109 0
-401 40 0
401 -127 10 66 -109 -40 0
-402 -77 0
-402 108 0
-402 103 0
-402 -116 0
-402 -19 0
402 77 -108 -103 116 19 0
-403 95 0
-403 -128 0
-403 98 0
-403 147 0
-403 167 0
403 -95 128 -98 -147 -167 0
-404 -112 0
-404 -53 0
-404 82 0
-404 69 0
-404 171 0
404 112 53 -82 -69 -171 0
-405 -46 0
-405 77 0
-405 183 0
-405 -74 0
-405 160 0
405 46 -77 -183 74 -160 0
401 402 403 404 405 0
-406 -58 0
-406 41 0
-406 57 0
-406 -28 0
-406 -121 0
406 58 -41 -57 28 121 0
-407 115 0
-407 26 0
-407 122 0
-407 164 0
-407 71 0
407 -115 -26 -122 -164 -71 0
-408 -16 0
-408 85 0
-408 -188 0
-408 76 0
-408 156 0
408 16 -85 188 -76 -156 0
-409 101 0
-409 -148 0
-409 -155 0
-409 81 0
-409 -190 0
409 -101 148 155 -81 190 0
-410 149 0
-410 146 0
-410 152 0
-410 -124 0
-410 154 0
410 -149 -146 -152 124 -154 0
406 407 408 409 410 0
-411 34 0
-411 -142 0
-411 166 0
-411 -2 0
-411 85 0
411 -34 142 -166 2 -85 0
-412 52 0
-412 -178 0
-412 2 0
-412 58 0
-412 13 0
412 -52 178 -2 -58 -13 0
-413 165 0
-413 46 0
-413 106 0
-413 43 0
-413 79 0
413 -165 -46 -106 -43 -79 0
-414 -85 0
-414 -107 0
-414 58 0
-414 -120 0
-414 -75 0
414 85 107 -58 120 75 0
-415 -66 0
-415 64 0
-415 140 0
-415 164 0
-415 1 0
415 66 -64 -140 -164 -1 0
411 412 413 414 415 0
-416 -2 0
-416 12 0
-416 -170 0
-416 97 0
-416 -161 0
416 2 -12 170 -97 161 0
-417 -21 0
-417 -181 0
-417 29 0
-417 83 0
-417 -143 0
417 21 181 -29 -83 143 0
-418 -140 0
-418 -130 0
-418 -158 0
-418 116 0
-418 -124 0
418 140 130 158 -116 124 0
-419 -94 0
-419 155 0
-419 -106 0
-419 -171 0
-419 -86 0
419 94 -155 106 171 86 0
-420 -80 0
-420 189 0
-420 182 0
-420 123 0
-420 152 0
420 80 -189 -182 -123 -152 0
416 417 418 419 420 0
-421 -172 0
-421 -101 0
-421 -167 0
-421 -50 0
-421 112 0
421 172 101 167 50 -112 0
-422 -109 0
-422 4 0
-422 176 0
-422 -47 0
-422 83 0
422 109 -4 -176 47 -83 0
-423 -12 0
-423 150 0
-423 123 0
-423 -104 0
-423 62 0
423 12 -150 -123 104 -62 0
-424 1 0
-424 35 0
-424 -70 0
-424 -161 0
-424 143 0
424 -1 -35 70 161 -143 0
-425 39 0
-425 121 0
-425 35 0
-425 100 0
-425 -50 0
425 -39 -121 -35 -100 50 0
421 422 423 424 425 0
-426 131 0
-426 -32 0
-426 99 0
-426 80 0
-426 105 0
426 -131 32 -99 -80 -105 0
-427 -28 0
-427 148 0
-427 -22 0
-427 122 0
-427 -141 0
427 28 -148 22 -122 141 0
-428 90 0
-428 -141 0
-428 -62 0
-428 149 0
-428 -31 0
428 -90 141 62 -149 31 0
-429 126 0
-429 -183 0
-429 -73 0
-429 72 0
-429 154 0
429 -126 183 73 -72 -154 0
-430 97 0
-430 10 0
-430 68 0
-430 21 0
-430 133 0
430 -97 -10 -68 -21 -133 0
426 427 428 429 430 0
